NAME: GRASP_49_1
TYPE: TSP
COMMENT: line_49_1
DIMENSION: 49
EDGE_WEIGHT_TYPE: EUC_2D
NODE_COORD_SECTION
1 2754 4822
2 789 2929
3 4504 1681
4 3024 4875
5 4002 3337
6 2082 1482
7 2800 4982
8 2499 4877
9 2407 141
10 1372 868
11 3653 427
12 4522 1898
13 1532 4539
14 2700 2835
15 3256 4850
16 1891 3773
17 1670 3367
18 1786 1948
19 1848 3980
20 4124 3421
21 3282 3328
22 451 485
23 1113 3866
24 3153 2944
25 1155 3791
26 1047 1951
27 3150 77
28 2199 2620
29 3905 3535
30 2575 4362
31 2132 4472
32 584 1068
33 3177 3933
34 197 360
35 2907 3400
36 559 1032
37 3784 712
38 3158 3437
39 3775 2693
40 2409 356
41 885 3672
42 1510 654
43 1304 3437
44 3647 1109
45 2728 1071
46 1869 2358
47 1944 1524
48 1163 1839
49 4106 1187
